

******************************************************************************
This program contains Ipopt, a library for large-scale nonlinear optimization.
 Ipopt is released as open source code under the Eclipse Public License (EPL).
         For more information visit http://projects.coin-or.org/Ipopt
******************************************************************************

This is Ipopt version 3.12.8, running with linear solver mumps.
NOTE: Other linear solvers might be more efficient (see Ipopt documentation).

Number of nonzeros in equality constraint Jacobian...:       88
Number of nonzeros in inequality constraint Jacobian.:        0
Number of nonzeros in Lagrangian Hessian.............:       39

Total number of variables............................:       44
                     variables with only lower bounds:        0
                variables with lower and upper bounds:       44
                     variables with only upper bounds:        0
Total number of equality constraints.................:       29
Total number of inequality constraints...............:        0
        inequality constraints with only lower bounds:        0
   inequality constraints with lower and upper bounds:        0
        inequality constraints with only upper bounds:        0

iter    objective    inf_pr   inf_du lg(mu)  ||d||  lg(rg) alpha_du alpha_pr  ls
   0  1.2213937e+07 2.44e+00 9.82e+01  -1.0 0.00e+00    -  0.00e+00 0.00e+00   0
   1  9.6954274e+06 1.68e+00 7.58e+01  -1.0 6.18e+01    -  3.11e-02 3.11e-01f  1
   2  4.3121443e+06 7.72e-01 3.98e+01  -1.0 1.00e+02    -  1.44e-01 5.41e-01f  1
   3  1.5992327e+06 2.70e-01 1.80e+01  -1.0 7.68e+01    -  1.37e-01 6.50e-01f  1
   4  3.5482693e+05 1.04e-08 4.34e+00  -1.0 5.77e+01    -  2.50e-01 1.00e+00f  1
   5  1.0263300e+05 5.45e-09 9.20e-01  -1.0 4.64e+01    -  3.37e-01 1.00e+00f  1
   6  1.3430423e+04 2.58e-14 4.66e-01  -1.0 6.39e+01    -  4.12e-01 1.00e+00f  1
   7 -1.2321309e+04 3.13e-14 1.20e-01  -1.0 4.37e+01    -  6.23e-01 1.00e+00f  1
   8 -2.0899439e+04 2.24e-14 1.18e-01  -1.0 3.71e+01    -  2.95e-01 1.00e+00f  1
   9 -2.7143573e+04 3.98e-14 5.83e-02  -1.0 5.55e+01    -  4.57e-01 1.00e+00f  1
iter    objective    inf_pr   inf_du lg(mu)  ||d||  lg(rg) alpha_du alpha_pr  ls
  10 -3.0906533e+04 1.54e-14 1.95e-02  -1.0 6.00e+01    -  5.96e-01 1.00e+00f  1
  11 -3.1900194e+04 1.30e-14 2.39e-02  -1.0 3.85e+01    -  7.98e-01 1.00e+00f  1
  12 -3.2200007e+04 1.14e-14 9.25e-03  -1.0 3.53e+01    -  1.00e+00 1.00e+00f  1
  13 -3.2349915e+04 2.13e-14 5.18e-03  -1.7 2.21e+01    -  9.65e-01 1.00e+00f  1
  14 -3.2383975e+04 1.42e-14 3.85e-03  -2.5 1.45e+01    -  1.00e+00 1.00e+00f  1
  15 -3.2391182e+04 1.39e-13 3.00e-03  -3.8 2.47e+00    -  1.00e+00 1.00e+00f  1
  16 -3.2392699e+04 1.07e-14 1.54e-03  -3.8 1.35e-01    -  1.00e+00 1.00e+00f  1
  17 -3.2393041e+04 1.42e-14 6.06e-04  -3.8 3.94e-02    -  1.00e+00 1.00e+00f  1
  18 -3.2393192e+04 1.42e-14 9.65e-04  -5.7 3.35e-02    -  1.00e+00 1.00e+00f  1
  19 -3.2393218e+04 1.42e-14 4.65e-04  -5.7 9.75e-03    -  1.00e+00 1.00e+00f  1
iter    objective    inf_pr   inf_du lg(mu)  ||d||  lg(rg) alpha_du alpha_pr  ls
  20 -3.2393223e+04 1.24e-14 2.32e-04  -5.7 3.00e-03    -  1.00e+00 1.00e+00f  1
  21 -3.2393225e+04 3.82e-14 5.73e-05  -5.7 5.79e-04    -  1.00e+00 1.00e+00f  1
  22 -3.2393225e+04 1.42e-14 2.81e-06  -5.7 8.04e-05    -  1.00e+00 1.00e+00h  1
  23 -3.2393226e+04 7.11e-15 1.98e-04  -8.6 9.10e-04    -  1.00e+00 1.00e+00f  1
  24 -3.2393226e+04 7.11e-15 7.74e-05  -8.6 1.61e-04    -  1.00e+00 1.00e+00h  1
  25 -3.2393226e+04 1.42e-14 3.65e-05  -8.6 6.16e-05    -  1.00e+00 1.00e+00h  1
  26 -3.2393226e+04 7.11e-15 8.90e-06  -8.6 2.03e-05    -  1.00e+00 1.00e+00h  1
  27 -3.2393226e+04 1.42e-14 5.83e-07  -8.6 4.29e-06    -  1.00e+00 1.00e+00h  1
  28 -3.2393226e+04 1.42e-14 1.58e-09  -8.6 2.50e-07    -  1.00e+00 1.00e+00h  1

Number of Iterations....: 28

                                   (scaled)                 (unscaled)
Objective...............:  -4.0536418029425668e+01   -3.2393225736201501e+04
Dual infeasibility......:   1.5818652441537337e-09    1.2640909194523966e-06
Constraint violation....:   1.4210854715202004e-14    1.4210854715202004e-14
Complementarity.........:   2.5064521094631187e-09    2.0029413777971046e-06
Overall NLP error.......:   2.5064521094631187e-09    2.0029413777971046e-06


Number of objective function evaluations             = 29
Number of objective gradient evaluations             = 29
Number of equality constraint evaluations            = 29
Number of inequality constraint evaluations          = 0
Number of equality constraint Jacobian evaluations   = 29
Number of inequality constraint Jacobian evaluations = 0
Number of Lagrangian Hessian evaluations             = 28
Total CPU secs in IPOPT (w/o function evaluations)   =      0.011
Total CPU secs in NLP function evaluations           =      0.001

EXIT: Optimal Solution Found.
 
Ipopt 3.12.8: Optimal Solution Found
